presolving:
(round 1, fast)       0 del vars, 146 del conss, 0 add conss, 17500 chg bounds, 0 chg sides, 17500 chg coeffs, 0 upgd conss, 0 impls, 0 clqs
   (0.3s) running MILP presolver
   (0.3s) MILP presolver found nothing
(round 2, exhaustive) 0 del vars, 146 del conss, 0 add conss, 17500 chg bounds, 0 chg sides, 17500 chg coeffs, 17500 upgd conss, 0 impls, 0 clqs
   (0.7s) probing: 51/175 (29.1%) - 0 fixings, 0 aggregations, 0 implications, 0 bound changes
   (0.7s) probing aborted: 50/50 successive totally useless probings
   (1.0s) symmetry computation started: requiring (bin +, int -, cont +), (fixed: bin -, int +, cont -)
   (1.1s) no symmetry present
presolving (3 rounds: 3 fast, 2 medium, 2 exhaustive):
 0 deleted vars, 146 deleted constraints, 0 added constraints, 17500 tightened bounds, 0 added holes, 0 changed sides, 17500 changed coefficients
 17500 implications, 0 cliques
presolved problem has 17675 variables (175 bin, 0 int, 0 impl, 17500 cont) and 17629 constraints
  17500 constraints of type <varbound>
    129 constraints of type <linear>
Presolving Time: 1.01

 time | node  | left  |LP iter|LP it/n|mem/heur|mdpt |vars |cons |rows |cuts |sepa|confs|strbr|  dualbound   | primalbound  |  gap   | compl. 
p 1.3s|     1 |     0 |   100 |     - |   locks|   0 |  17k|  17k|  17k|   0 |  0 |   0 |   0 | 6.165504e+07 | 1.644320e+05 |  Large | unknown
i 1.3s|     1 |     0 |   100 |     - |  oneopt|   0 |  17k|  17k|  17k|   0 |  0 |   0 |   0 | 6.165504e+07 | 3.633180e+05 |  Large | unknown
  3.8s|     1 |     0 |  4170 |     - |   171M |   0 |  17k|  17k|  17k|   0 |  0 |   0 |   0 | 4.781058e+05 | 3.633180e+05 |  31.59%| unknown
r 3.8s|     1 |     0 |  4170 |     - |simplero|   0 |  17k|  17k|  17k|   0 |  0 |   0 |   0 | 4.781058e+05 | 4.429337e+05 |   7.94%| unknown
r 3.9s|     1 |     0 |  4170 |     - |shifting|   0 |  17k|  17k|  17k|   0 |  0 |   0 |   0 | 4.781058e+05 | 4.454608e+05 |   7.33%| unknown
r 4.8s|     1 |     0 |  5672 |     - |intshift|   0 |  17k|  17k|  17k|   0 |  2 |   0 |   0 | 4.781058e+05 | 4.559930e+05 |   4.85%| unknown
d 8.7s|     1 |     0 |  9385 |     - |farkasdi|   0 |  17k|  17k|  17k|   0 |  2 |   0 |   0 | 4.781058e+05 | 4.563655e+05 |   4.76%| unknown
d 9.2s|     1 |     0 |  9855 |     - |farkasdi|   0 |  17k|  17k|  17k|   0 |  2 |   0 |   0 | 4.781058e+05 | 4.604504e+05 |   3.83%| unknown
d 9.3s|     1 |     0 | 10049 |     - |farkasdi|   0 |  17k|  17k|  17k|   0 |  2 |   0 |   0 | 4.781058e+05 | 4.623896e+05 |   3.40%| unknown
d 9.5s|     1 |     0 | 10164 |     - |farkasdi|   0 |  17k|  17k|  17k|   0 |  2 |   0 |   0 | 4.781058e+05 | 4.634632e+05 |   3.16%| unknown
d 9.6s|     1 |     0 | 10179 |     - |farkasdi|   0 |  17k|  17k|  17k|   0 |  2 |   0 |   0 | 4.781058e+05 | 4.679515e+05 |   2.17%| unknown
d11.6s|     1 |     0 | 12266 |     - |farkasdi|   0 |  17k|  17k|  17k|   0 |  2 |   0 |   0 | 4.781058e+05 | 4.693220e+05 |   1.87%| unknown
d11.9s|     1 |     0 | 12601 |     - |farkasdi|   0 |  17k|  17k|  17k|   0 |  2 |   0 |   0 | 4.781058e+05 | 4.703540e+05 |   1.65%| unknown
d11.9s|     1 |     0 | 12675 |     - |farkasdi|   0 |  17k|  17k|  17k|   0 |  2 |   0 |   0 | 4.781058e+05 | 4.708266e+05 |   1.55%| unknown
d12.0s|     1 |     0 | 12725 |     - |farkasdi|   0 |  17k|  17k|  17k|   0 |  2 |   0 |   0 | 4.781058e+05 | 4.726497e+05 |   1.15%| unknown
 time | node  | left  |LP iter|LP it/n|mem/heur|mdpt |vars |cons |rows |cuts |sepa|confs|strbr|  dualbound   | primalbound  |  gap   | compl. 
d12.0s|     1 |     0 | 12740 |     - |farkasdi|   0 |  17k|  17k|  17k|   0 |  2 |   0 |   0 | 4.781058e+05 | 4.755570e+05 |   0.54%| unknown
L19.0s|     1 |     0 | 12740 |     - |    rens|   0 |  17k|  17k|  17k|   0 |  2 |   0 |   0 | 4.781058e+05 | 4.770090e+05 |   0.23%| unknown
 19.4s|     1 |     0 | 12740 |     - |   190M |   0 |  17k|  17k|  17k|   0 |  2 |   0 |   0 | 4.781058e+05 | 4.770090e+05 |   0.23%| unknown
 19.5s|     1 |     0 | 12740 |     - |   193M |   0 |  17k|  17k|  17k|   0 |  2 |   0 |   0 | 4.781058e+05 | 4.770090e+05 |   0.23%| unknown
 19.6s|     1 |     0 | 12740 |     - |   193M |   0 |  17k|  17k|  12k|   0 |  3 |   0 |   0 | 4.781058e+05 | 4.770090e+05 |   0.23%| unknown
(run 1, node 1) restarting after 55 global fixings of integer variables

presolving:
(round 1, fast)       5555 del vars, 0 del conss, 0 add conss, 0 chg bounds, 0 chg sides, 0 chg coeffs, 0 upgd conss, 17500 impls, 0 clqs
   (19.9s) running MILP presolver
   (20.0s) MILP presolver found nothing
presolving (2 rounds: 2 fast, 1 medium, 1 exhaustive):
 5555 deleted vars, 0 deleted constraints, 0 added constraints, 0 tightened bounds, 0 added holes, 0 changed sides, 0 changed coefficients
 17500 implications, 0 cliques
presolved problem has 12120 variables (120 bin, 0 int, 0 impl, 12000 cont) and 12115 constraints
  12000 constraints of type <varbound>
    115 constraints of type <linear>
Presolving Time: 1.43
transformed 47/49 original solutions to the transformed problem space

 time | node  | left  |LP iter|LP it/n|mem/heur|mdpt |vars |cons |rows |cuts |sepa|confs|strbr|  dualbound   | primalbound  |  gap   | compl. 
 22.1s|     1 |     0 | 16049 |     - |   206M |   0 |  12k|  12k|  12k|   0 |  0 |   0 |   0 | 4.781058e+05 | 4.770090e+05 |   0.23%| unknown
 22.1s|     1 |     0 | 16049 |     - |   206M |   0 |  12k|  12k|  12k|   0 |  0 |   0 |   0 | 4.781058e+05 | 4.770090e+05 |   0.23%| unknown
 22.2s|     1 |     0 | 16049 |     - |   208M |   0 |  12k|  12k|  12k|   0 |  1 |   0 |   0 | 4.781058e+05 | 4.770090e+05 |   0.23%| unknown
 47.3s|     1 |     2 | 19913 |     - |   219M |   0 |  12k|  12k|  12k|   0 |  3 |   0 |  33 | 4.778936e+05 | 4.770090e+05 |   0.19%| unknown

SCIP Status        : problem is solved [optimal solution found]
Solving Time (sec) : 95.81
Solving Nodes      : 57 (total of 58 nodes in 2 runs)
Primal Bound       : +4.77009000000000e+05 (208 solutions)
Dual Bound         : +4.77009000000000e+05
Gap                : 0.00 %
Solve Status: optimal
Solve Time: 95.83 seconds
Objective Value: 477009.00
